
******************************************************************************
This program contains Ipopt, a library for large-scale nonlinear optimization.
 Ipopt is released as open source code under the Eclipse Public License (EPL).
         For more information visit http://projects.coin-or.org/Ipopt
******************************************************************************

This is Ipopt version trunk, running with linear solver mumps.
NOTE: Other linear solvers might be more efficient (see Ipopt documentation).

Number of nonzeros in equality constraint Jacobian...:   322752
Number of nonzeros in inequality constraint Jacobian.:        0
Number of nonzeros in Lagrangian Hessian.............:        0

Total number of variables............................:      656
                     variables with only lower bounds:        0
                variables with lower and upper bounds:      656
                     variables with only upper bounds:        0
Total number of equality constraints.................:      492
Total number of inequality constraints...............:        0
        inequality constraints with only lower bounds:        0
   inequality constraints with lower and upper bounds:        0
        inequality constraints with only upper bounds:        0

iter    objective    inf_pr   inf_du lg(mu)  ||d||  lg(rg) alpha_du alpha_pr  ls
   0  0.0000000e+00 2.50e+00 0.00e+00   0.0 0.00e+00    -  0.00e+00 0.00e+00   0
   1  1.7173125e-01 7.36e-02 3.12e-01  -1.0 4.37e-01    -  9.90e-01 1.00e+00h  1
   2  2.0726739e-01 7.91e-03 1.04e-01  -3.0 1.47e-01    -  9.90e-01 1.00e+00h  1
   3  4.7864365e-01 1.02e-03 1.81e-01  -5.0 3.11e-01    -  9.90e-01 1.00e+00H  1
   4  7.2839202e-01 5.21e-04 2.40e-01  -3.1 1.96e-01    -  9.98e-01 1.00e+00H  1
   5  1.8903175e+00 1.55e-04 4.38e-01  -4.9 6.20e-01    -  1.00e+00 1.00e+00H  1
   6  1.9781199e+00 3.43e-05 5.49e-01  -6.8 4.44e-01    -  1.00e+00 1.00e+00H  1
   7  1.5832367e+00 2.91e-01 5.68e-01  -8.7 1.31e+00    -  1.00e+00 5.00e-01f  2
   8  3.8340898e+00 1.77e-01 9.43e-01  -8.8 1.31e+00    -  1.00e+00 1.00e+00H  1
   9  7.7775553e+00 8.74e-02 1.31e+00  -8.8 1.12e+00    -  1.00e+00 1.00e+00H  1
iter    objective    inf_pr   inf_du lg(mu)  ||d||  lg(rg) alpha_du alpha_pr  ls
  10  9.5404036e+00 2.55e-02 1.56e+00  -8.8 1.58e+00    -  1.00e+00 1.00e+00H  1
  11  9.0877735e+00 3.42e-02 1.47e+00  -8.8 3.68e+00    -  1.00e+00 6.25e-02f  5
  12  7.8418723e+00 7.11e-02 1.47e+00  -8.8 4.52e+00    -  1.00e+00 6.25e-02f  5
  13  6.6912914e+00 8.39e-02 1.31e+00  -8.8 3.51e+00    -  1.00e+00 6.25e-02f  5
  14  5.5975967e+00 8.94e-02 1.19e+00  -8.8 3.38e+00    -  1.00e+00 6.25e-02f  5
  15  1.2316730e+01 7.63e-02 3.04e+00  -8.8 2.61e+00    -  1.00e+00 1.00e+00H  1
  16  5.2778501e+00 6.70e-02 1.76e+00  -8.8 9.10e-01    -  1.00e+00 1.00e+00F  1
  17  2.1714475e+00 2.57e-02 7.64e-01  -8.8 5.82e-01    -  1.00e+00 1.00e+00F  1
  18  2.5871908e+00 4.16e-03 9.43e-01  -8.8 9.08e-01    -  1.00e+00 1.00e+00H  1
  19  4.1465902e+00 3.84e-03 1.34e+00  -8.8 5.85e-01    -  1.00e+00 1.00e+00H  1
iter    objective    inf_pr   inf_du lg(mu)  ||d||  lg(rg) alpha_du alpha_pr  ls
  20  6.4789812e+00 3.19e-03 2.06e+00  -8.8 9.34e-01    -  1.00e+00 1.00e+00H  1
  21  9.9219806e+00 1.17e-03 2.02e+00  -8.8 1.01e+00    -  1.00e+00 1.00e+00H  1
  22  9.8305687e+00 1.19e-03 1.99e+00  -8.8 1.32e+00    -  1.00e+00 1.56e-02f  7
  23  9.6420475e+00 1.18e-03 1.98e+00  -8.8 2.04e+00    -  1.00e+00 7.81e-03f  8
  24  9.4415283e+00 1.17e-03 1.96e+00  -8.8 1.68e+00    -  1.00e+00 7.81e-03f  8
  25  9.0881699e+00 1.19e-03 1.93e+00  -8.8 1.44e+00    -  1.00e+00 1.56e-02f  7
  26  1.5469995e+00 7.85e-01 1.02e+00  -8.8 1.38e+00    -  1.00e+00 1.00e+00f  1
  27  9.8235500e-01 5.16e-02 1.06e+00  -8.8 3.29e-01    -  1.00e+00 1.00e+00h  1
  28  5.7836754e-01 3.07e-02 3.89e-01  -8.8 2.28e-01    -  1.00e+00 1.00e+00f  1
  29  5.2109208e-01 5.45e-02 5.52e-01  -8.8 2.77e-01    -  1.00e+00 1.00e+00f  1
iter    objective    inf_pr   inf_du lg(mu)  ||d||  lg(rg) alpha_du alpha_pr  ls
  30  4.0608552e-01 4.65e-03 3.30e-01  -8.8 7.82e-02    -  1.00e+00 1.00e+00h  1
  31  5.5495099e-01 3.85e-03 4.54e-01 -10.6 2.89e-01    -  1.00e+00 1.00e+00H  1
  32  3.3612910e-01 7.40e-03 1.93e-01 -10.7 8.44e-02    -  1.00e+00 1.00e+00f  1
  33  3.4403876e-01 6.72e-04 2.56e-01 -11.0 1.89e-01    -  1.00e+00 1.00e+00H  1
  34  2.5316001e-01 9.05e-03 7.27e-02 -11.0 1.03e-01    -  1.00e+00 1.00e+00f  1
  35  2.5132101e-01 3.65e-03 1.10e-01 -11.0 6.24e-02    -  1.00e+00 1.00e+00h  1
  36  2.4839243e-01 7.98e-04 5.79e-02 -11.0 2.82e-02    -  1.00e+00 1.00e+00h  1
  37  2.8904875e-01 7.97e-05 1.40e-01 -11.0 7.82e-02    -  1.00e+00 1.00e+00H  1
  38  2.6452440e-01 1.07e-03 1.07e-01 -11.0 3.28e-02    -  1.00e+00 1.00e+00f  1
  39  8.2467434e-01 1.39e-04 4.32e-01 -11.0 2.93e-01    -  1.00e+00 1.00e+00H  1
iter    objective    inf_pr   inf_du lg(mu)  ||d||  lg(rg) alpha_du alpha_pr  ls
  40  2.8359861e-01 5.93e-04 1.22e-01 -11.0 1.92e-01    -  1.00e+00 1.00e+00F  1
  41  2.8075529e-01 2.73e-04 1.68e-01 -11.0 1.38e-01    -  1.00e+00 1.00e+00F  1
  42  2.4323799e-01 2.34e-03 8.65e-02 -11.0 6.36e-02    -  1.00e+00 1.00e+00f  1
  43  2.7744500e-01 7.42e-05 1.33e-01 -11.0 8.67e-02    -  1.00e+00 1.00e+00H  1
  44  2.4678632e-01 1.63e-03 4.96e-02 -11.0 3.71e-02    -  1.00e+00 1.00e+00f  1
  45  2.5164785e-01 5.74e-05 9.95e-02 -11.0 7.58e-02    -  1.00e+00 1.00e+00H  1
  46  2.4073695e-01 1.81e-03 1.68e-02 -11.0 4.31e-02    -  1.00e+00 1.00e+00h  1
  47  2.4330789e-01 7.43e-04 3.28e-02 -11.0 2.41e-02    -  1.00e+00 1.00e+00h  1
  48  2.4105499e-01 2.61e-04 6.42e-03 -11.0 1.37e-02    -  1.00e+00 1.00e+00h  1
  49  2.4109631e-01 1.87e-05 7.25e-03 -11.0 4.89e-03    -  1.00e+00 1.00e+00h  1

Number of Iterations....: 49

                                   (scaled)                 (unscaled)
Objective...............:   2.4109631359003320e-01    2.4109631359003320e-01
Dual infeasibility......:   7.2499421031686634e-03    7.2499421031686634e-03
Constraint violation....:   1.8672951597409337e-05    1.8672951597409337e-05
Complementarity.........:   1.0000000000000001e-11    1.0000000000000001e-11
Overall NLP error.......:   7.2499421031686634e-03    7.2499421031686634e-03


Number of objective function evaluations             = 166
Number of objective gradient evaluations             = 50
Number of equality constraint evaluations            = 166
Number of inequality constraint evaluations          = 0
Number of equality constraint Jacobian evaluations   = 50
Number of inequality constraint Jacobian evaluations = 0
Number of Lagrangian Hessian evaluations             = 0
Total CPU secs in IPOPT (w/o function evaluations)   =     28.759
Total CPU secs in NLP function evaluations           =     14.282

EXIT: Optimal Solution Found.
